sing20221116.00
TTAA  66001 48698
99006 27435 02503 00089 26625 00508 92776 22216 29512
85507 17825 29023 70157 10238 30525 50588 05508 32516
40760 15921 27006 30972 29759 11504 25099 40759 13016
20247 52364 12029 15426 68357 12027 10657 87550 09543
88999
77999=
TTCC  66001 48698
70862 65977 28529 50065 65382 29016 30383 54185 28029
20645 51186 27531 10101 47387 27035
88923 89950 09053
77872 10062 42181=
TTDD  6600/ 48698
11923 89950 22895 90150 33865 85158 44834 71167 55777 65769
66723 64975 77639 69381 88464 62383 99406 62783 11334 58984
22306 54385 33239 49586 44203 51786 55154 50586 66147 50986
77137 46787 88100 47387 99096 48187 11077 41988
21212 11872 10062 22805 08502 33803 29002 44784 28518 55750
27019 66706 28531 77595 28021 88559 26021 99505 28016 11482
32016 22460 29516 33439 24521 44379 26531 55325 23523 66314
27518 77235 30039 88170 25545 99143 25539 11136 27535 22098
27535 33089 29535 44077 29537=
